StudentsNr = 10;
InstructorsNr = 86;
DaysNr = 2;
SlotsPerDay = 10;
AvailabilitySlotsLenght = 10;
RoomNr = 1;
ProgrammNr = 1;
DegreeNr = 1;
RolesNr = 4;
CoursesNr = 3;
InstructorsProgramm = [{1}, {1}, {1}, {1}, {1}, {1}, {1}, {1}, {1}, {1}, {1}, {1}, {1}, {1}, {1}, {1}, {1}, {1}, {1}, {1}, {1}, {1}, {1}, {1}, {1}, {1}, {1}, {1}, {1}, {1}, {1}, {1}, {1}, {1}, {1}, {1}, {1}, {1}, {1}, {1}, {1}, {1}, {1}, {1}, {1}, {1}, {1}, {1}, {1}, {1}, {1}, {1}, {1}, {1}, {1}, {1}, {1}, {1}, {1}, {1}, {1}, {1}, {1}, {1}, {1}, {1}, {1}, {1}, {1}, {1}, {1}, {1}, {1}, {1}, {1}, {1}, {1}, {1}, {1}, {1}, {1}, {1}, {1}, {1}, {1}, {1}];
InstructorRolesPerProgramm = [|{2, 5, 6, 7, 8, 13, 18, 19, 21, 22, 23, 25, 27, 30, 34, 36, 38, 43, 47, 49, 53, 57, 59, 67, 68, 70, 72, 76, 77, 81, 83, 84, 85}, {2, 4, 9, 12, 13, 16, 19, 21, 26, 27, 30, 34, 38, 43, 44, 54, 56, 60, 64, 65, 66, 68, 69, 72, 82, 84}, {2, 5, 9, 10, 12, 13, 16, 17, 19, 20, 21, 24, 26, 27, 31, 32, 34, 36, 41, 42, 43, 47, 48, 49, 52, 55, 61, 63, 64, 66, 68, 83, 85}, {1, 2, 5, 8, 9, 11, 13, 17, 19, 23, 26, 35, 36, 49, 52, 57, 58, 59, 61, 62, 69, 70, 72, 75, 82}|];
InstructorsAvailability = [|1, 0, |0, 1, |0, 1, |0, 1, |1, 1, |1, 0, |0, 1, |0, 1, |0, 0, |0, 1, |1, 1, |1, 1, |1, 1, |1, 1, |0, 1, |0, 1, |1, 1, |1, 1, |1, 1, |0, 1, |1, 1, |0, 1, |0, 0, |0, 1, |1, 1, |1, 0, |0, 0, |0, 1, |1, 1, |1, 1, |0, 0, |0, 0, |0, 1, |1, 1, |0, 0, |1, 1, |0, 1, |1, 1, |1, 0, |0, 1, |0, 1, |1, 0, |0, 0, |1, 1, |1, 1, |0, 1, |1, 1, |1, 1, |0, 0, |0, 1, |1, 1, |0, 1, |0, 1, |0, 1, |0, 1, |0, 1, |1, 0, |1, 1, |0, 0, |0, 0, |1, 0, |0, 1, |0, 0, |0, 1, |1, 0, |0, 1, |0, 1, |1, 1, |0, 1, |0, 1, |0, 0, |0, 1, |0, 0, |1, 1, |0, 0, |1, 1, |0, 1, |1, 1, |0, 0, |0, 0, |1, 1, |1, 1, |0, 1, |0, 0, |0, 1, |1, 1|];
StudentsProgramm = [1, 1, 1, 1, 1, 1, 1, 1, 1, 1];
StudentsDegree = [1, 1, 1, 1, 1, 1, 1, 1, 1, 1];
StudentsSupervisorId = [27, 8, 5, 70, 12, 55, 21, 1, 21, 56];
StudentsCourseIds = [{1, 2, 3}, {1, 2, 3}, {1, 2, 3}, {1, 2, 3}, {1, 2, 3}, {1, 2, 3}, {1, 2, 3}, {1, 2, 3}, {1, 2, 3}, {1, 2, 3}];
StudentsAvailability = [|1, 1, |0, 1, |0, 0, |1, 1, |0, 0, |1, 1, |0, 0, |0, 1, |1, 1, |0, 1|];
TheoryticalMinCard = [0, 0, 0, 0, 0, 0, 0, 0, 0, 0];
CoursesInstructorIds = [{12, 39, 79}, {4, 7, 8, 9, 14, 19, 21, 22, 24, 32, 33, 35, 36, 37, 46, 47, 48, 50, 53, 55, 57, 58, 59, 60, 62, 63, 64, 65, 67, 68, 69, 70, 71, 72, 75, 76, 77, 78, 79, 80, 82, 85}, {5, 20, 21, 24, 28, 31, 39, 41, 54, 55, 70, 84}];
RolesDemands = [20, 1, 26, 17];
RolesContinuity = [];
ExamLen = [2, 2, 2, 2, 2, 2, 2, 2, 2, 2];
LunchTsMinLen = 1;
LunchStarts = [4..7, 13..16];
SupervisorAvailable = 5;
OptimalLunchLenght = [0, 1];
OptimalStartTs = [2, 1];
OptimalFinishTs = [0, 9];
MinimizeRooms = 100;
RolesSoftContinuity = [|1, 2, 3, 4|2, 2, 0, 4|];
SameDegreeInRoom = 20;
Mergeability = 0;
